70
2 1 4
3 0 4
4 1 5
4 2 5
5 0 2
5 1 5
5 2 1
5 3 3
6 1 2
6 2 1
6 4 2
7 0 1
7 5 1
8 0 3
8 1 3
8 7 2
9 1 3
9 3 1
9 6 2
9 8 3
10 2 1
10 3 4
10 7 5
10 9 1
11 0 2
11 4 1
11 5 2
11 8 4
11 9 5
11 10 5
12 0 1
12 3 1
12 5 2
12 8 2
12 11 3
13 0 2
13 4 5
13 5 5
13 6 5
13 7 2
13 8 5
13 9 4
13 11 3
14 2 5
14 4 1
14 7 2
14 8 4
14 9 2
14 10 5
14 12 2
15 0 4
15 1 5
15 5 3
15 6 3
15 8 4
15 9 3
15 11 2
15 12 4
15 13 5
15 14 3
16 1 1
16 2 5
16 4 1
16 5 2
16 6 5
16 8 1
16 9 5
16 10 5
16 14 1
16 15 5
17 3 5
17 4 3
17 7 5
17 9 3
17 13 5
17 14 3
17 16 2
18 4 1
18 5 2
18 8 5
18 9 2
18 10 5
18 12 4
18 14 3
18 16 4
18 17 1
19 1 3
19 4 5
19 6 2
19 7 4
19 8 1
19 10 1
19 12 1
19 13 4
19 14 4
19 16 3
20 1 5
20 3 3
20 8 2
20 10 1
20 14 5
20 16 4
20 18 1
20 19 4
21 0 3
21 1 5
21 4 4
21 9 3
21 18 2
22 0 5
22 1 4
22 4 1
22 7 5
22 9 1
22 11 4
22 13 1
22 16 3
22 17 2
22 18 4
23 0 4
23 1 4
23 3 4
23 4 1
23 8 1
23 10 3
23 11 2
23 13 3
23 14 2
23 15 4
23 16 5
23 17 5
23 19 1
23 20 1
23 21 4
23 22 3
24 0 3
24 1 5
24 2 5
24 7 5
24 9 1
24 11 5
24 13 1
24 14 4
24 15 3
24 17 1
24 18 4
24 19 4
24 20 5
24 21 1
24 22 3
25 0 2
25 2 5
25 5 4
25 6 3
25 7 4
25 8 5
25 10 1
25 11 2
25 13 3
25 14 4
25 17 2
25 18 1
25 19 4
25 20 3
25 24 4
26 1 5
26 5 5
26 6 3
26 7 3
26 8 2
26 11 1
26 14 2
26 15 2
26 16 5
26 17 3
26 19 5
26 20 1
26 22 5
26 24 2
27 3 4
27 9 2
27 10 5
27 12 4
27 13 3
27 16 1
27 18 1
27 19 4
27 20 4
27 21 2
27 22 3
27 23 2
27 24 4
27 26 3
28 0 5
28 1 2
28 3 1
28 8 4
28 9 3
28 12 3
28 15 2
28 17 4
28 19 3
28 20 1
28 21 2
28 22 5
28 23 5
28 24 2
28 25 3
28 27 5
29 0 4
29 1 1
29 8 4
29 10 2
29 12 1
29 15 3
29 19 1
29 20 2
29 21 4
29 23 3
29 25 2
29 27 4
30 0 1
30 1 5
30 2 5
30 4 1
30 6 1
30 10 5
30 13 1
30 16 5
30 17 1
30 18 3
30 19 1
30 23 4
30 24 1
30 26 2
30 29 1
31 2 3
31 3 3
31 7 1
31 11 5
31 12 5
31 15 4
31 16 4
31 18 5
31 19 5
31 23 4
31 26 5
31 28 1
31 29 5
31 30 4
32 0 2
32 2 1
32 3 2
32 13 2
32 16 3
32 17 2
32 18 1
32 19 3
32 20 2
32 21 5
32 22 3
32 24 5
32 27 2
32 28 5
32 30 3
32 31 1
33 4 4
33 5 3
33 13 2
33 17 4
33 19 2
33 21 4
33 23 5
33 24 5
33 25 5
33 27 5
33 30 5
33 32 3
34 0 2
34 1 4
34 2 1
34 4 1
34 6 2
34 7 2
34 8 1
34 12 4
34 13 2
34 15 4
34 18 2
34 22 4
34 26 3
34 27 2
34 29 1
34 32 5
34 33 5
35 0 2
35 6 4
35 7 2
35 12 3
35 13 3
35 18 4
35 19 3
35 20 2
35 25 1
35 26 4
35 27 3
35 28 1
35 30 1
35 32 3
35 33 1
36 3 4
36 4 2
36 5 4
36 7 5
36 10 1
36 11 3
36 12 4
36 13 4
36 22 1
36 23 3
36 25 4
36 26 4
36 28 3
36 31 4
36 32 4
36 33 4
36 35 5
37 0 4
37 2 2
37 3 2
37 4 4
37 5 4
37 6 3
37 11 4
37 14 1
37 18 4
37 19 4
37 20 5
37 21 1
37 22 2
37 24 1
37 25 5
37 26 1
37 28 1
37 30 3
37 31 4
37 32 5
37 36 5
38 0 2
38 2 1
38 6 2
38 7 4
38 11 1
38 12 4
38 13 2
38 18 1
38 19 5
38 21 4
38 24 4
38 25 1
38 27 4
38 29 2
38 30 4
38 32 3
38 34 1
38 35 5
38 36 1
38 37 3
39 2 3
39 4 1
39 5 3
39 6 2
39 10 3
39 12 5
39 13 2
39 14 2
39 17 5
39 18 1
39 20 2
39 21 1
39 22 5
39 23 2
39 24 4
39 25 3
39 26 3
39 28 2
39 29 2
39 30 2
39 32 1
39 33 1
39 37 3
39 38 4
40 0 3
40 4 4
40 6 3
40 8 2
40 11 1
40 12 5
40 13 2
40 14 3
40 16 4
40 17 4
40 18 4
40 19 5
40 21 4
40 23 4
40 26 5
40 30 3
40 31 3
40 35 1
40 37 4
41 1 2
41 2 4
41 3 2
41 4 1
41 5 4
41 6 1
41 10 4
41 11 2
41 12 1
41 13 5
41 14 5
41 16 4
41 17 3
41 19 1
41 20 4
41 21 2
41 22 5
41 24 5
41 25 2
41 26 2
41 28 2
41 31 3
41 39 2
42 2 4
42 5 4
42 7 1
42 8 5
42 10 5
42 11 3
42 16 3
42 17 1
42 19 4
42 21 2
42 25 1
42 26 3
42 31 3
42 33 4
42 35 2
42 36 2
42 37 4
42 40 5
42 41 3
43 2 1
43 3 5
43 4 5
43 6 2
43 10 4
43 11 3
43 14 2
43 15 4
43 23 2
43 25 1
43 27 5
43 32 1
43 36 1
43 37 2
43 41 2
44 0 4
44 1 5
44 2 3
44 8 4
44 11 1
44 14 5
44 16 1
44 17 1
44 18 4
44 20 4
44 21 1
44 22 1
44 23 2
44 25 5
44 26 5
44 27 1
44 28 2
44 29 4
44 30 1
44 31 1
44 32 5
44 33 4
44 34 2
44 36 4
44 41 1
45 3 3
45 6 2
45 8 3
45 9 1
45 10 4
45 12 3
45 14 3
45 15 1
45 22 5
45 26 3
45 28 3
45 30 2
45 31 2
45 33 1
45 34 3
45 35 2
45 36 1
45 41 2
45 42 4
45 43 3
46 0 1
46 1 2
46 2 1
46 3 1
46 5 3
46 8 2
46 12 3
46 14 2
46 17 5
46 19 3
46 20 3
46 25 5
46 27 4
46 30 1
46 33 5
46 34 4
46 37 1
46 38 3
46 39 5
46 40 3
46 42 5
47 1 1
47 3 1
47 6 1
47 7 4
47 9 4
47 11 5
47 12 3
47 13 4
47 15 4
47 16 5
47 17 3
47 18 1
47 22 4
47 33 4
47 35 1
47 41 3
47 46 2
48 3 1
48 4 3
48 5 3
48 6 5
48 7 1
48 8 2
48 9 2
48 12 5
48 13 2
48 16 5
48 17 2
48 19 3
48 23 3
48 27 1
48 29 3
48 30 2
48 31 3
48 33 2
48 34 4
48 35 2
48 38 5
48 39 5
48 40 1
48 41 1
48 42 2
48 47 3
49 5 2
49 6 4
49 7 1
49 8 1
49 9 4
49 12 4
49 14 5
49 16 2
49 17 4
49 18 5
49 19 3
49 22 4
49 23 4
49 24 3
49 27 4
49 30 4
49 32 5
49 34 3
49 35 3
49 36 1
49 44 4
49 45 2
49 47 4
50 1 1
50 3 3
50 8 5
50 13 5
50 16 3
50 17 5
50 18 3
50 20 5
50 21 1
50 22 3
50 23 2
50 25 3
50 29 2
50 30 5
50 31 3
50 34 1
50 36 3
50 38 3
50 40 4
50 41 1
50 42 5
50 43 1
50 45 5
50 47 2
50 48 3
51 1 4
51 4 5
51 5 1
51 6 5
51 8 5
51 9 2
51 10 5
51 12 5
51 13 3
51 17 4
51 19 2
51 20 4
51 21 2
51 25 3
51 27 2
51 28 3
51 29 4
51 30 2
51 31 2
51 33 5
51 35 2
51 38 2
51 39 4
51 40 4
51 41 3
51 42 3
51 46 1
51 47 4
51 48 5
51 50 4
52 0 2
52 1 5
52 2 3
52 6 3
52 7 1
52 8 2
52 10 4
52 11 3
52 12 4
52 13 5
52 17 5
52 19 4
52 21 2
52 24 2
52 25 4
52 27 4
52 30 3
52 31 4
52 33 1
52 35 1
52 36 1
52 37 4
52 39 4
52 41 4
52 42 5
52 43 1
52 44 2
52 46 5
52 50 3
53 3 5
53 7 3
53 8 2
53 18 3
53 22 1
53 23 4
53 24 1
53 28 3
53 29 1
53 30 3
53 34 1
53 37 3
53 41 5
53 49 2
54 3 3
54 4 5
54 5 3
54 7 4
54 9 1
54 10 4
54 12 4
54 13 1
54 14 3
54 15 2
54 17 5
54 20 3
54 21 5
54 25 5
54 27 4
54 29 5
54 32 3
54 34 3
54 36 2
54 39 3
54 41 2
54 44 4
54 45 5
54 46 4
54 50 1
54 53 4
55 0 2
55 1 4
55 3 5
55 4 2
55 7 2
55 10 2
55 12 2
55 14 5
55 15 5
55 16 2
55 19 2
55 21 5
55 22 3
55 25 4
55 27 4
55 28 5
55 30 2
55 31 4
55 37 5
55 39 3
55 42 5
55 43 4
55 44 4
55 45 4
55 47 2
55 49 1
55 52 1
55 53 2
56 0 1
56 1 3
56 5 5
56 6 5
56 9 5
56 10 3
56 11 1
56 12 1
56 14 5
56 20 4
56 21 5
56 22 4
56 23 4
56 24 5
56 25 1
56 27 3
56 29 3
56 30 1
56 34 5
56 35 1
56 37 4
56 41 4
56 42 5
56 45 5
56 49 2
56 50 1
56 51 2
56 52 2
56 53 4
57 2 4
57 4 4
57 6 1
57 13 1
57 14 1
57 16 4
57 17 4
57 19 4
57 20 4
57 22 1
57 23 2
57 26 1
57 29 5
57 31 5
57 35 3
57 43 3
57 46 1
57 48 3
57 51 1
57 54 1
57 55 3
58 1 1
58 2 4
58 5 3
58 6 1
58 7 5
58 8 5
58 9 4
58 10 5
58 12 1
58 13 1
58 14 4
58 15 5
58 17 4
58 18 4
58 25 4
58 26 4
58 27 5
58 28 2
58 29 3
58 32 3
58 33 4
58 36 2
58 38 2
58 39 4
58 41 4
58 42 5
58 43 1
58 46 2
58 49 4
58 53 5
58 54 2
58 55 2
58 57 5
59 1 1
59 4 3
59 5 1
59 7 3
59 8 1
59 9 4
59 10 5
59 12 4
59 15 1
59 16 5
59 18 1
59 19 4
59 21 2
59 23 2
59 27 5
59 29 2
59 31 2
59 32 2
59 36 5
59 39 4
59 42 3
59 44 5
59 45 2
59 47 5
59 48 1
59 51 1
59 53 4
59 54 5
59 55 2
59 57 5
60 0 1
60 1 5
60 2 1
60 3 3
60 4 3
60 5 4
60 6 1
60 7 3
60 8 2
60 13 1
60 15 4
60 17 4
60 18 1
60 19 1
60 21 4
60 23 2
60 24 2
60 26 5
60 28 3
60 31 4
60 33 4
60 34 4
60 35 3
60 36 3
60 38 1
60 39 1
60 42 3
60 43 2
60 45 5
60 47 3
60 48 3
60 49 3
60 50 1
60 51 4
60 52 5
60 53 3
60 55 3
60 58 5
61 0 3
61 1 1
61 3 4
61 4 2
61 5 1
61 9 3
61 10 1
61 11 1
61 16 2
61 17 4
61 20 5
61 21 5
61 23 1
61 24 1
61 25 3
61 26 1
61 31 1
61 32 2
61 35 5
61 39 4
61 41 1
61 42 3
61 43 3
61 44 1
61 45 3
61 46 3
61 47 5
61 48 1
61 52 5
61 53 1
61 55 3
61 57 4
62 2 4
62 5 3
62 7 1
62 8 3
62 11 4
62 12 1
62 14 1
62 16 2
62 18 4
62 22 3
62 23 3
62 24 2
62 29 5
62 31 3
62 32 4
62 35 1
62 37 1
62 40 2
62 41 3
62 42 1
62 45 3
62 46 3
62 47 5
62 48 4
62 52 5
62 53 3
62 55 4
62 57 4
62 58 1
62 60 1
62 61 2
63 0 2
63 2 3
63 3 5
63 5 4
63 6 2
63 7 1
63 11 4
63 13 4
63 14 1
63 17 3
63 18 5
63 19 2
63 20 4
63 21 4
63 23 4
63 25 5
63 31 2
63 33 1
63 37 5
63 38 5
63 39 5
63 40 3
63 46 3
63 48 2
63 50 2
63 51 4
63 55 2
63 56 3
63 62 2
64 3 3
64 6 1
64 9 1
64 12 2
64 15 4
64 17 5
64 20 4
64 21 4
64 22 4
64 23 5
64 25 3
64 26 1
64 27 2
64 29 4
64 32 5
64 33 1
64 34 4
64 36 3
64 37 1
64 39 3
64 40 5
64 46 3
64 49 1
64 52 4
64 55 1
64 60 5
65 7 2
65 8 4
65 12 5
65 13 1
65 15 1
65 21 5
65 22 4
65 23 1
65 25 2
65 27 1
65 28 1
65 34 5
65 35 3
65 36 3
65 38 2
65 39 3
65 40 1
65 43 4
65 46 3
65 47 1
65 48 5
65 49 2
65 50 2
65 51 2
65 52 3
65 54 2
65 55 2
65 56 2
65 57 2
65 59 3
65 60 1
66 0 4
66 1 3
66 6 3
66 8 5
66 9 2
66 12 3
66 14 1
66 15 2
66 18 3
66 20 1
66 21 3
66 23 1
66 24 2
66 26 3
66 27 5
66 28 2
66 29 4
66 30 4
66 31 4
66 34 4
66 35 4
66 38 4
66 43 1
66 44 2
66 48 4
66 49 2
66 54 1
66 57 2
66 62 2
66 63 5
67 0 2
67 1 1
67 10 3
67 12 5
67 17 5
67 19 1
67 21 5
67 22 3
67 25 5
67 26 2
67 28 4
67 29 2
67 30 5
67 33 2
67 34 2
67 35 2
67 38 4
67 39 1
67 40 3
67 41 2
67 43 3
67 46 3
67 47 4
67 48 5
67 51 1
67 54 5
67 58 2
67 61 2
67 63 1
67 64 3
68 3 2
68 6 1
68 8 2
68 12 1
68 17 5
68 18 3
68 21 2
68 22 3
68 25 1
68 26 4
68 31 5
68 34 2
68 35 5
68 39 1
68 40 1
68 41 3
68 42 2
68 44 4
68 45 5
68 48 3
68 49 1
68 50 4
68 52 1
68 53 5
68 55 3
68 58 4
68 60 5
68 62 1
68 64 5
68 65 2
68 66 5
68 67 5
69 0 5
69 2 2
69 7 2
69 10 3
69 15 3
69 16 3
69 17 2
69 18 2
69 20 3
69 22 4
69 25 5
69 26 2
69 27 3
69 28 3
69 29 4
69 31 5
69 33 4
69 34 2
69 37 3
69 38 5
69 39 4
69 40 3
69 41 3
69 43 1
69 44 2
69 45 3
69 47 3
69 48 5
69 50 1
69 51 5
69 52 2
69 53 4
69 55 5
69 57 3
69 58 2
69 61 4
69 62 2
69 63 4
69 66 3
69 67 2
